
List of user-set options:

                                    Name   Value                used
                           compl_inf_tol = 1                     yes
                         constr_viol_tol = 1                     yes
                            dual_inf_tol = 1000                  yes
                           linear_solver = ma97                  yes
                              ma86_small = 1e-30                  no
                                  ma86_u = 0.0001                 no
                              ma97_order = best                  yes
                              ma97_small = 1e-30                 yes
                            ma97_switch1 = at_start              yes
                            ma97_switch2 = od_hd_reuse           yes
                                  ma97_u = 1e-06                 yes
                               ma97_umax = 0.5                   yes
                                max_iter = 1000                  yes
                    max_refinement_steps = 20                    yes
                    min_refinement_steps = 5                     yes
                                 mu_init = 1e-06                 yes
           mu_superlinear_decrease_power = 1.25                  yes
                   nlp_scaling_min_value = 1e-08                 yes
                        option_file_name = Preset_Case:_52_NCP.opt  yes
                             output_file = ./tmp/Preset_Case:_52_NCP.output  yes
                      print_user_options = yes                   yes
        required_infeasibility_reduction = 1                      no
                                     tol = 1e-08                 yes
                   warm_start_bound_frac = 1e-20                 yes
                   warm_start_bound_push = 1e-20                 yes
                   warm_start_init_point = yes                   yes
              warm_start_mult_bound_push = 1e-20                 yes
                warm_start_mult_init_max = 1e+40                 yes
             warm_start_slack_bound_frac = 1e-20                 yes
             warm_start_slack_bound_push = 1e-20                 yes

******************************************************************************
This program contains Ipopt, a library for large-scale nonlinear optimization.
 Ipopt is released as open source code under the Eclipse Public License (EPL).
         For more information visit http://projects.coin-or.org/Ipopt
******************************************************************************

This is Ipopt version 3.12.10, running with linear solver ma97.

Number of nonzeros in equality constraint Jacobian...:   117167
Number of nonzeros in inequality constraint Jacobian.:      213
Number of nonzeros in Lagrangian Hessian.............:    47513

Total number of variables............................:    29977
                     variables with only lower bounds:    11312
                variables with lower and upper bounds:    15135
                     variables with only upper bounds:        0
Total number of equality constraints.................:    29864
Total number of inequality constraints...............:       25
        inequality constraints with only lower bounds:        4
   inequality constraints with lower and upper bounds:        0
        inequality constraints with only upper bounds:       21

iter    objective    inf_pr   inf_du lg(mu)  ||d||  lg(rg) alpha_du alpha_pr  ls
   0 -1.4794722e-01 1.79e-01 2.00e+00  -6.0 0.00e+00    -  0.00e+00 0.00e+00   0
In iteration 0, 7 Slacks too small, adjusting variable bounds
   1 -1.4794722e-01 1.79e-01 1.35e+03  -6.0 1.09e+10    -  1.35e-13 1.00e-16h  1
   2 -1.4794239e-01 1.79e-01 1.34e+03  -6.0 1.15e+03    -  4.74e-03 3.44e-05f  1
   3 -1.4747393e-01 1.75e-01 1.33e+03  -6.0 1.13e+02    -  6.87e-08 2.12e-02h  2
   4 -1.4697468e-01 1.70e-01 1.29e+03  -6.0 3.31e+01    -  3.25e-02 2.84e-02h  1
   5r-1.4697468e-01 1.70e-01 1.00e+03  -0.8 0.00e+00    -  0.00e+00 2.23e-07R  2
   6r-1.4698068e-01 1.70e-01 1.68e+03  -0.8 2.04e+03    -  3.71e-06 5.74e-07f  1
   7 -1.4693993e-01 1.69e-01 4.59e+06  -6.0 7.20e+01    -  4.86e-02 2.21e-03h  1
   8 -1.4687454e-01 1.69e-01 7.53e+06  -6.0 2.15e+02    -  2.21e-03 3.57e-03h  3
   9 -1.4683224e-01 1.68e-01 7.51e+06  -6.0 2.17e+02    -  7.58e-03 2.25e-03h  1
iter    objective    inf_pr   inf_du lg(mu)  ||d||  lg(rg) alpha_du alpha_pr  ls
  10 -1.4677463e-01 1.68e-01 7.49e+06  -6.0 2.18e+02    -  1.34e-02 3.06e-03h  4
  11 -1.4671896e-01 1.68e-01 7.47e+06  -6.0 2.19e+02    -  5.93e-03 2.43e-03h  5
  12 -1.4660795e-01 1.67e-01 7.43e+06  -6.0 2.15e+02    -  2.87e-03 5.65e-03h  4
  13 -1.4654370e-01 1.66e-01 7.41e+06  -6.0 2.12e+02    -  5.93e-03 3.09e-03h  5
  14 -1.4647181e-01 1.65e-01 7.38e+06  -6.0 2.11e+02    -  2.01e-01 3.48e-03h  5
  15 -1.4643255e-01 1.65e-01 7.36e+06  -6.0 2.85e+02    -  1.36e-02 2.65e-03h  4
  16 -1.4638259e-01 1.64e-01 7.34e+06  -6.0 2.92e+02    -  6.10e-02 3.45e-03h  3
  17 -1.4635069e-01 1.64e-01 7.32e+06  -6.0 3.39e+02    -  2.51e-02 2.32e-03h  2
  18 -1.4632461e-01 1.64e-01 7.30e+06  -6.0 3.48e+02    -  2.30e-02 2.48e-03h  1
  19 -1.4631212e-01 1.63e-01 7.28e+06  -6.0 3.69e+02    -  6.23e-02 3.01e-03h  6
iter    objective    inf_pr   inf_du lg(mu)  ||d||  lg(rg) alpha_du alpha_pr  ls
  20 -1.4631075e-01 1.63e-01 7.25e+06  -6.0 4.25e+02    -  9.51e-03 3.50e-03h  6
  21 -1.4631565e-01 1.62e-01 7.23e+06  -6.0 4.27e+02    -  1.65e-02 3.52e-03h  6
  22 -1.4632395e-01 1.61e-01 7.20e+06  -6.0 4.41e+02    -  2.65e-02 3.65e-03h  6
  23 -1.4634021e-01 1.61e-01 7.17e+06  -6.0 4.63e+02    -  1.16e-02 3.90e-03h  6
  24 -1.4635933e-01 1.60e-01 7.15e+06  -6.0 4.66e+02    -  1.76e-01 4.03e-03h  6
  25 -1.4641431e-01 1.59e-01 7.11e+06  -6.0 6.04e+02    -  1.18e-02 5.15e-03h  6
  26 -1.4644131e-01 1.59e-01 7.09e+06  -6.0 6.00e+02    -  4.16e-02 2.59e-03h  7
  27 -1.4649811e-01 1.58e-01 7.05e+06  -6.0 6.29e+02    -  7.36e-03 5.45e-03h  6
  28 -1.4827024e-01 3.57e+00 5.84e+06  -6.0 6.24e+02    -  1.57e-01 1.72e-01h  1
  29r-1.4827024e-01 3.57e+00 1.00e+03   0.1 0.00e+00    -  0.00e+00 2.91e-07R  3
iter    objective    inf_pr   inf_du lg(mu)  ||d||  lg(rg) alpha_du alpha_pr  ls
  30r-1.4813520e-01 3.56e+00 1.31e+03   0.1 2.96e+03    -  8.71e-06 2.43e-06f  1
  31 -1.4813120e-01 3.56e+00 1.40e+05  -6.0 7.02e+01    -  8.40e-02 2.59e-04h  1
  32 -1.4788177e-01 3.53e+00 8.46e+06  -6.0 1.85e+02    -  2.60e-04 1.57e-02h  1
  33 -1.4788350e-01 3.53e+00 8.46e+06  -6.0 5.02e+02    -  2.78e-02 9.76e-05h  1
  34 -1.4836125e-01 3.49e+00 8.21e+06  -6.0 5.22e+02    -  5.02e-03 2.97e-02h  1
  35 -1.4831894e-01 3.46e+00 8.10e+06  -6.0 5.17e+02    -  8.85e-03 1.27e-02h  1
  36 -1.4863715e-01 3.48e+00 7.83e+06  -6.0 5.11e+02    -  1.19e-02 3.34e-02h  2
  37 -1.4850847e-01 3.45e+00 7.70e+06  -6.0 3.18e+02    -  2.34e-02 1.69e-02h  1
  38 -1.4825300e-01 3.40e+00 7.51e+06  -6.0 2.68e+02    -  6.30e-04 2.41e-02h  1
  39 -1.4825859e-01 3.40e+00 7.51e+06  -6.0 8.43e+02    -  6.33e-02 1.69e-04h  1
iter    objective    inf_pr   inf_du lg(mu)  ||d||  lg(rg) alpha_du alpha_pr  ls
  40 -1.4920715e-01 3.22e+00 7.26e+06  -6.0 9.46e+02    -  8.48e-02 3.37e-02f  1
  41 -1.5003427e-01 2.79e+00 6.98e+06  -6.0 9.18e+02    -  1.15e-01 6.50e-02h  1
  42 -1.5004561e-01 2.75e+00 7.07e+06  -6.0 7.11e+02    -  1.95e-02 1.48e-02h  4
  43 -1.5163135e-01 4.07e+00 5.96e+06  -6.0 6.65e+02    -  2.43e-04 1.09e-01h  1
  44 -1.5172301e-01 4.06e+00 5.95e+06  -6.0 7.87e+02    -  1.75e-02 2.26e-03h  1
  45 -1.5174453e-01 4.05e+00 5.92e+06  -6.0 1.04e+03    -  3.46e-02 4.22e-03h  1
  46 -1.5142460e-01 4.00e+00 1.74e+07  -6.0 1.18e+03    -  1.38e-01 1.29e-02h  3
  47 -1.5119232e-01 3.98e+00 2.82e+07  -6.0 1.26e+03    -  1.56e-01 6.55e-03h  5
  48 -1.5110606e-01 3.97e+00 3.25e+07  -6.0 1.34e+03    -  8.77e-02 1.99e-03h  6
  49 -1.5109623e-01 3.97e+00 4.19e+07  -6.0 1.37e+03    -  2.27e-01 2.10e-04h  9
iter    objective    inf_pr   inf_du lg(mu)  ||d||  lg(rg) alpha_du alpha_pr  ls
  50 -1.5109154e-01 3.97e+00 4.23e+07  -6.0 1.45e+03    -  2.44e-02 8.94e-05h 10
  51 -1.4986540e-01 3.88e+00 4.36e+07  -6.0 1.46e+03    -  1.74e-01 2.39e-02h  2
  52 -1.4878291e-01 3.79e+00 4.25e+07  -6.0 1.45e+03    -  2.35e-02 2.45e-02h  2
  53 -1.4782263e-01 3.71e+00 4.19e+07  -6.0 1.40e+03    -  9.52e-02 2.36e-02h  2
  54 -1.4672190e-01 3.61e+00 4.07e+07  -6.0 1.36e+03    -  7.33e-02 2.88e-02h  1
  55 -1.4561812e-01 3.50e+00 3.98e+07  -6.0 1.40e+03    -  1.93e-01 3.09e-02h  3
  56 -1.4426093e-01 3.41e+00 3.80e+07  -6.0 1.46e+03    -  1.09e-01 2.62e-02h  3
  57 -1.4299116e-01 3.34e+00 3.60e+07  -6.0 1.52e+03    -  1.16e-01 2.10e-02h  4
  58 -1.4189124e-01 3.30e+00 3.36e+07  -6.0 1.77e+03    -  1.19e-01 1.41e-02h  5
  59 -1.4101065e-01 3.27e+00 3.12e+07  -6.0 2.14e+03    -  9.70e-02 8.87e-03h  6
iter    objective    inf_pr   inf_du lg(mu)  ||d||  lg(rg) alpha_du alpha_pr  ls
  60 -1.4011962e-01 3.24e+00 2.81e+07  -6.0 2.21e+03    -  1.20e-01 8.66e-03h  6
  61 -1.3922444e-01 3.21e+00 2.32e+07  -6.0 2.17e+03    -  2.07e-01 8.88e-03h  6
  62 -1.3832712e-01 3.19e+00 1.77e+07  -6.0 2.06e+03    -  2.63e-01 9.40e-03h  6
  63 -1.3659331e-01 3.13e+00 1.48e+07  -6.0 2.19e+03    -  1.65e-01 1.91e-02h  5
  64 -1.3578321e-01 3.10e+00 1.48e+07  -6.0 2.64e+03    -  1.68e-05 7.99e-03h  6
  65 -1.1069060e-01 9.95e+00 9.88e+06  -6.0 2.60e+03    -  3.29e-01 2.49e-01w  1
  66 -1.1083685e-01 9.70e+00 9.60e+06  -6.0 1.63e+03    -  9.50e-02 2.57e-02w  1
  67 -1.1083791e-01 9.70e+00 6.60e+06  -6.0 6.07e+02  -2.0 6.87e-03 5.76e-05w  1
  68 -1.3421492e-01 3.05e+00 9.67e+06  -6.0 1.88e+03    -  3.29e-01 1.56e-02h  4
  69 -1.3278787e-01 3.00e+00 9.03e+06  -6.0 2.79e+03    -  6.77e-02 1.72e-02h  5
iter    objective    inf_pr   inf_du lg(mu)  ||d||  lg(rg) alpha_du alpha_pr  ls
  70 -1.3145450e-01 2.95e+00 8.83e+06  -6.0 2.79e+03    -  2.27e-02 1.64e-02h  5
  71 -1.3144965e-01 2.95e+00 1.20e+07  -6.0 1.30e+02  -1.6 1.38e-02 1.77e-04h  1
  72 -1.3144831e-01 2.95e+00 1.20e+07  -6.0 3.10e+03    -  1.52e-03 1.41e-05h  1
  73 -1.3056993e-01 2.92e+00 1.12e+07  -6.0 3.08e+03    -  6.32e-02 9.33e-03h  5
  74r-1.3056993e-01 2.92e+00 1.00e+03  -0.1 0.00e+00  -2.1 0.00e+00 1.77e-09R  2
  75r-1.3025278e-01 2.92e+00 1.00e+03  -0.1 1.00e+07    -  3.68e-08 1.49e-08f  1
  76r-1.3017598e-01 2.92e+00 4.43e+03  -0.1 6.62e+03    -  4.35e-06 3.63e-06f  1
  77 -1.3017012e-01 2.92e+00 9.50e+04  -6.0 2.79e+01    -  2.26e-03 6.57e-04h  1
  78 -1.3017009e-01 2.92e+00 5.56e+04  -6.0 4.38e+02    -  6.60e-04 8.01e-07h  2
  79 -1.3016815e-01 2.92e+00 5.61e+06  -6.0 4.41e+02    -  6.55e-02 4.68e-05h  1
iter    objective    inf_pr   inf_du lg(mu)  ||d||  lg(rg) alpha_du alpha_pr  ls
  80 -1.2977449e-01 2.89e+00 4.80e+06  -6.0 5.16e+02    -  7.15e-04 9.30e-03h  1
  81 -1.2888813e-01 2.83e+00 4.46e+06  -6.0 5.74e+02    -  2.39e-02 2.61e-02h  1
  82 -1.2816078e-01 2.79e+00 9.27e+06  -6.0 6.23e+02    -  6.17e-02 1.78e-02h  1
  83 -1.2519203e-01 2.67e+00 2.47e+07  -6.0 6.44e+02    -  2.19e-01 6.76e-02h  1
  84 -1.2481454e-01 2.65e+00 2.81e+07  -6.0 7.66e+02    -  1.47e-04 7.96e-03h  1
  85 -1.2245909e-01 2.54e+00 3.42e+07  -6.0 7.71e+02    -  1.64e-01 4.97e-02h  3
  86 -1.2044827e-01 2.44e+00 4.94e+07  -6.0 8.35e+02    -  3.71e-01 4.35e-02h  3
  87 -1.1823352e-01 2.32e+00 5.94e+07  -6.0 9.08e+02    -  3.70e-01 5.07e-02h  1
  88 -1.1607666e-01 2.19e+00 7.82e+08  -6.0 9.20e+02    -  4.13e-03 5.41e-02h  2
  89 -1.1388853e-01 2.06e+00 7.39e+08  -6.0 8.62e+02    -  2.19e-01 5.95e-02h  1
iter    objective    inf_pr   inf_du lg(mu)  ||d||  lg(rg) alpha_du alpha_pr  ls
  90 -1.1389840e-01 2.05e+00 7.33e+08  -6.0 1.46e+03    -  1.41e-02 2.71e-03h  1
  91 -1.1410293e-01 1.98e+00 3.27e+09  -6.0 1.50e+03    -  8.31e-04 3.57e-02h  1
  92 -1.1410939e-01 1.98e+00 3.36e+09  -6.0 1.44e+03    -  4.23e-02 2.48e-03h  1
  93 -1.1411705e-01 1.97e+00 3.35e+09  -6.0 1.46e+03    -  2.01e-03 2.60e-03h  1
  94 -1.1432790e-01 1.89e+00 3.40e+09  -6.0 1.51e+03    -  6.93e-04 4.00e-02h  1
  95 -1.1432970e-01 1.89e+00 3.40e+09  -6.0 1.50e+03    -  1.03e-03 3.82e-04h  1
  96 -1.1434963e-01 1.88e+00 3.39e+09  -6.0 1.49e+03    -  1.77e-04 4.40e-03f  1
  97 -1.1441633e-01 1.85e+00 3.34e+09  -6.0 1.48e+03    -  1.44e-06 1.61e-02f  1
  98 -1.1448490e-01 1.83e+00 3.29e+09  -6.0 1.50e+03    -  1.44e-03 1.49e-02h  1
  99 -1.1452179e-01 1.79e+00 3.23e+09  -6.0 1.45e+03    -  4.39e-07 1.79e-02h  1
iter    objective    inf_pr   inf_du lg(mu)  ||d||  lg(rg) alpha_du alpha_pr  ls
 100 -1.1453474e-01 1.75e+00 3.15e+09  -6.0 1.44e+03    -  1.20e-02 2.74e-02h  5
 101 -1.1450940e-01 1.74e+00 3.14e+09  -6.0 3.57e+02  -1.6 2.14e-03 1.20e-03h  1
 102 -1.1443239e-01 1.74e+00 3.13e+09  -6.0 3.14e+02  -1.2 4.17e-03 3.46e-03h  1
 103 -1.1438268e-01 1.73e+00 3.13e+09  -6.0 6.33e+02  -1.7 3.25e-03 1.69e-03h  3
 104 -1.1433763e-01 1.73e+00 3.12e+09  -6.0 2.37e+03  -2.2 1.87e-09 4.49e-04h  3
 105 -1.1417520e-01 1.72e+00 3.11e+09  -6.0 5.02e+02  -1.7 1.82e-04 5.60e-03h  1
 106 -1.1417728e-01 1.72e+00 3.11e+09  -6.0 1.20e+03    -  3.37e-02 3.08e-04h  1
 107 -1.1418279e-01 1.72e+00 3.10e+09  -6.0 1.21e+03    -  5.33e-02 8.17e-04h  1
 108 -1.1433561e-01 1.66e+00 2.99e+09  -6.0 1.24e+03    -  2.30e-01 3.59e-02h  2
 109 -1.1449561e-01 1.60e+00 2.87e+09  -6.0 1.24e+03    -  9.98e-02 3.95e-02h  1
iter    objective    inf_pr   inf_du lg(mu)  ||d||  lg(rg) alpha_du alpha_pr  ls
 110 -1.1456210e-01 1.55e+00 2.78e+09  -6.0 1.30e+03    -  2.28e-01 3.32e-02h  5
 111 -1.1461186e-01 1.50e+00 2.69e+09  -6.0 1.26e+03    -  1.70e-01 3.29e-02h  4
 112 -1.1466813e-01 1.42e+00 2.54e+09  -6.0 1.22e+03    -  4.22e-01 5.37e-02h  4
 113 -1.1465956e-01 1.35e+00 2.42e+09  -6.0 1.11e+03    -  2.28e-01 4.97e-02h  5
 114 -1.1457139e-01 1.28e+00 2.29e+09  -6.0 1.16e+03    -  3.43e-01 5.18e-02h  5
 115 -1.1453504e-01 1.27e+00 2.29e+09  -6.0 2.59e+02  -2.2 3.78e-02 2.89e-03h  1
 116 -1.1453503e-01 1.27e+00 2.29e+09  -6.0 4.98e+02  -2.7 1.20e-01 1.51e-05h  1
 117 -1.1450158e-01 1.23e+00 2.20e+09  -6.0 7.17e+02  -3.2 1.57e-01 3.82e-02h  1
 118 -1.1446056e-01 1.18e+00 2.11e+09  -6.0 7.34e+02  -3.6 4.90e-01 4.17e-02h  4
 119 -1.1444409e-01 1.10e+00 1.96e+09  -6.0 7.44e+02  -4.1 6.37e-01 6.79e-02h  4
iter    objective    inf_pr   inf_du lg(mu)  ||d||  lg(rg) alpha_du alpha_pr  ls
 120 -1.1594688e-01 2.32e+00 7.16e+08  -6.0 7.30e+02  -4.6 3.92e-01 6.36e-01H  1
 121 -1.1553916e-01 1.37e+00 3.76e+08  -6.0 1.18e+02  -4.2 9.26e-01 4.75e-01h  1
 122r-1.1553916e-01 1.37e+00 1.00e+03  -0.4 0.00e+00  -4.6 0.00e+00 4.55e-07R  2
 123r-1.1562929e-01 1.37e+00 1.64e+03  -0.4 1.91e+04    -  1.90e-05 7.31e-06f  1
 124 -1.1561688e-01 1.32e+00 5.99e+04  -6.0 2.02e+01    -  3.49e-04 3.71e-02h  1
 125 -1.1561365e-01 1.30e+00 5.93e+04  -6.0 1.88e+01    -  2.28e-03 9.57e-03h  1
 126 -1.1559224e-01 1.22e+00 5.50e+04  -6.0 1.84e+01    -  2.66e-02 6.42e-02h  1
 127 -1.1557811e-01 1.16e+00 5.25e+04  -6.0 1.61e+01    -  6.73e-02 4.65e-02h  1
 128 -1.1549672e-01 4.64e-01 2.04e+04  -6.0 1.40e+01    -  1.30e-02 6.05e-01h  1
 129 -1.1550260e-01 3.83e-01 1.69e+04  -6.0 3.69e+00    -  2.39e-01 1.74e-01h  1
iter    objective    inf_pr   inf_du lg(mu)  ||d||  lg(rg) alpha_du alpha_pr  ls
 130 -1.1554042e-01 2.23e-02 9.15e+02  -6.0 2.74e+00    -  2.24e-01 9.43e-01h  1
 131 -1.1556918e-01 5.17e-06 3.69e+01  -6.0 1.51e-01    -  8.11e-01 1.00e+00h  1
 132 -1.1572848e-01 1.46e-04 2.06e+01  -6.0 1.00e+00    -  5.52e-01 1.00e+00h  1
 133 -1.1688498e-01 1.13e-02 1.80e+01  -6.0 2.79e+00    -  1.30e-01 1.00e+00h  1
 134 -1.1776758e-01 5.63e-03 1.12e+01  -6.0 2.46e+00    -  3.98e-01 1.00e+00h  1
 135 -1.1928030e-01 2.05e-02 7.45e+00  -6.0 4.10e+00    -  6.08e-01 1.00e+00h  1
 136 -1.2305390e-01 1.28e-01 1.46e+01  -6.0 1.03e+01    -  5.08e-01 1.00e+00h  1
 137 -1.2467066e-01 1.22e-01 9.92e+00  -6.0 1.95e+01    -  2.78e-01 2.33e-01h  1
 138 -1.2564146e-01 1.14e-01 1.14e+02  -6.0 2.37e+01    -  6.12e-01 1.47e-01f  1
 139 -1.2720349e-01 1.31e-01 1.61e+02  -6.0 5.51e+01    -  5.29e-01 9.93e-02h  1
iter    objective    inf_pr   inf_du lg(mu)  ||d||  lg(rg) alpha_du alpha_pr  ls
 140 -1.3262500e-01 4.69e-01 1.64e+02  -6.0 9.83e+01    -  4.13e-01 2.01e-01h  1
 141 -1.3435931e-01 4.74e-01 3.34e+02  -6.0 1.33e+02    -  4.09e-01 5.54e-02h  1
 142 -1.4645259e-01 5.41e+00 3.18e+02  -6.0 2.59e+02    -  4.85e-01 3.30e-01h  1
 143 -1.4681117e-01 5.39e+00 6.25e+02  -6.0 6.08e+02    -  2.60e-01 6.05e-03h  1
 144 -1.5014582e-01 5.40e+00 1.00e+03  -6.0 7.93e+02    -  5.03e-01 7.15e-02h  3
 145 -1.7051971e-01 1.75e+01 7.22e+02  -6.0 1.40e+03    -  4.16e-01 3.16e-01h  1
 146 -1.7133692e-01 1.31e+01 6.02e+02  -6.0 6.57e+00  -5.1 3.78e-01 2.51e-01h  1
 147 -1.7274064e-01 8.55e+00 9.71e+02  -6.0 9.79e+00  -5.6 6.86e-01 3.51e-01h  1
 148 -1.7490283e-01 4.39e+00 1.68e+02  -6.0 1.54e+01  -6.1 2.82e-01 4.75e-01h  1
 149 -1.7681400e-01 1.89e+00 2.62e+03  -6.0 9.06e+00  -5.6 9.96e-01 5.62e-01h  1
iter    objective    inf_pr   inf_du lg(mu)  ||d||  lg(rg) alpha_du alpha_pr  ls
 150 -1.7920561e-01 9.39e-01 1.72e+03  -6.0 2.05e+01  -6.1 5.34e-01 4.93e-01h  1
 151 -1.8008094e-01 6.90e-01 1.14e+04  -6.0 8.73e+00  -5.7 1.00e+00 2.63e-01h  1
 152 -1.8055148e-01 6.12e-01 1.43e+04  -6.0 3.75e+01  -6.2 5.24e-01 1.13e-01h  1
 153 -1.8371199e-01 3.94e+00 3.31e+03  -6.0 5.65e+01  -6.7 2.93e-01 5.73e-01h  1
 154 -1.8401445e-01 3.55e+00 2.63e+04  -6.0 2.35e+01  -6.2 7.03e-01 9.84e-02h  1
 155 -1.8818211e-01 3.02e+00 1.46e+04  -6.0 4.54e+01  -6.7 4.04e-01 1.00e+00h  1
 156 -1.8979733e-01 2.53e+00 2.42e+04  -6.0 1.83e+02  -7.2 2.09e-01 2.80e-01h  1
 157 -1.9330202e-01 3.10e+00 3.79e+04  -6.0 2.93e+02  -7.7 2.77e-01 3.54e-01h  1
 158 -1.9392482e-01 2.85e+00 6.03e+04  -6.0 1.32e+02  -7.2 2.54e-01 8.87e-02h  1
 159 -1.9416584e-01 2.85e+00 4.94e+06  -6.0 2.97e+03  -7.7 3.93e-04 6.08e-03h  1
iter    objective    inf_pr   inf_du lg(mu)  ||d||  lg(rg) alpha_du alpha_pr  ls
 160 -1.9764161e-01 3.10e+00 8.05e+04  -6.0 1.15e+02  -7.3 1.34e-01 1.00e+00f  1
 161 -1.9784854e-01 2.60e+00 6.49e+04  -6.0 4.73e+01  -6.9 9.33e-01 2.33e-01h  1
 162 -2.0045612e-01 6.58e+00 1.98e+04  -6.0 2.34e+02  -7.3 3.87e-01 6.95e-01h  1
 163 -2.0117988e-01 8.33e+00 1.85e+04  -6.0 4.41e+02  -6.9 1.90e-01 6.34e-02h  1
 164 -2.0170654e-01 1.03e+01 1.63e+04  -6.0 7.81e+01  -6.5 9.02e-03 1.19e-01h  1
 165 -2.0274283e-01 7.95e+00 6.86e+03  -6.0 6.37e+01  -7.0 3.55e-01 5.80e-01f  1
 166 -2.0470406e-01 5.34e+00 1.61e+03  -6.0 1.26e+02  -7.4 1.61e-01 7.71e-01h  1
 167 -2.0506966e-01 5.17e+00 1.56e+03  -6.0 6.50e+02  -7.9 6.16e-02 2.68e-02h  1
 168 -2.0642132e-01 4.37e+00 1.16e+03  -6.0 1.89e+02  -7.5 8.97e-02 2.60e-01h  1
 169 -2.0672645e-01 4.40e+00 1.14e+03  -6.0 1.38e+02  -7.1 1.10e-01 1.56e-02h  1
iter    objective    inf_pr   inf_du lg(mu)  ||d||  lg(rg) alpha_du alpha_pr  ls
 170 -2.0957433e-01 5.14e+00 6.48e+02  -6.0 2.14e+02  -7.5 6.63e-01 4.29e-01h  1
 171 -2.0980525e-01 5.05e+00 6.39e+02  -6.0 1.84e+02  -7.1 7.47e-04 1.41e-02h  1
 172 -2.1280040e-01 1.78e+00 5.19e+02  -6.0 2.41e+02  -7.6 3.25e-03 8.18e-01h  1
 173 -2.1598280e-01 3.72e+00 4.02e+02  -6.0 8.99e+02  -8.1 5.59e-01 3.35e-01h  1
 174 -2.1925894e-01 6.25e+00 1.46e+03  -6.0 3.42e+02  -7.6 8.00e-02 7.44e-01h  1
 175 -2.1962879e-01 6.28e+00 3.12e+02  -6.0 1.14e+03  -8.1 2.21e-01 3.56e-02h  1
 176 -2.2282967e-01 5.83e+00 2.36e+03  -6.0 1.46e+03  -8.6 6.39e-01 1.99e-01h  1
 177 -2.2947418e-01 1.12e+01 3.20e+03  -6.0 2.27e+03  -9.1 4.94e-01 3.32e-01h  1
 178 -2.3320826e-01 6.87e+00 2.21e+03  -6.0 6.61e+02  -8.6 5.77e-01 5.16e-01h  1
 179 -2.3604477e-01 6.87e+00 9.33e+03  -6.0 1.10e+03  -9.1 5.49e-01 3.16e-01h  1
iter    objective    inf_pr   inf_du lg(mu)  ||d||  lg(rg) alpha_du alpha_pr  ls
 180 -2.3611599e-01 6.74e+00 1.76e+04  -6.0 4.09e+02  -8.7 3.04e-01 1.96e-02h  1
 181 -2.3705268e-01 5.88e+00 1.26e+04  -6.0 1.01e+03  -9.2 7.93e-02 1.47e-01h  1
 182 -2.3945706e-01 5.94e+00 1.71e+04  -6.0 3.06e+03  -9.7 5.05e-01 3.52e-01h  1
 183 -2.4074035e-01 4.34e+00 1.85e+07  -6.0 1.26e+03  -9.2 1.17e-03 2.70e-01h  1
 184 -2.4090499e-01 3.31e+00 1.41e+07  -6.0 3.74e+02  -8.8 1.85e-01 2.37e-01h  1
 185 -2.4134082e-01 1.78e+00 7.61e+06  -6.0 3.99e+02  -9.3 1.94e-01 4.61e-01h  1
 186 -2.4146752e-01 1.73e+00 7.35e+06  -6.0 6.94e+03  -9.8 1.79e-02 3.46e-02h  1
 187 -2.4148899e-01 1.10e+00 4.63e+06  -6.0 4.68e+02  -8.4 4.66e-02 3.70e-01h  1
 188 -2.4168028e-01 9.09e-01 2.03e+06  -6.0 3.36e+02  -8.0 2.15e-01 5.61e-01h  1
 189 -2.4169649e-01 8.32e-01 1.71e+06  -6.0 3.15e+02  -8.5 3.94e-01 1.59e-01h  1
iter    objective    inf_pr   inf_du lg(mu)  ||d||  lg(rg) alpha_du alpha_pr  ls
 190 -2.4186328e-01 7.90e-01 1.38e+06  -6.0 2.48e+02  -8.1 6.71e-02 1.93e-01h  1
 191 -2.4247089e-01 3.97e-01 5.06e+05  -6.0 1.95e+02  -8.5 1.98e-01 6.33e-01h  1
 192 -2.4278844e-01 7.33e-01 4.47e+05  -6.0 5.27e+02  -9.0 4.14e-01 1.16e-01h  1
 193 -2.4382832e-01 3.11e+00 3.43e+05  -6.0 1.75e+03  -9.5 1.04e-01 2.33e-01h  1
 194 -2.4478717e-01 5.20e+01 3.61e+04  -6.0 1.89e+03  -9.1 2.94e-01 8.95e-01h  1
 195 -2.4492385e-01 5.03e+01 3.49e+04  -6.0 1.54e+03  -9.5 5.75e-04 3.31e-02h  1
 196 -2.4627328e-01 3.99e+01 2.17e+04  -6.0 3.67e+03 -10.0 1.01e-01 3.77e-01h  1
 197 -2.4676800e-01 3.46e+01 1.88e+04  -6.0 1.39e+03  -9.6 7.98e-02 1.37e-01h  1
 198 -2.4719433e-01 2.74e+01 1.47e+04  -6.0 5.31e+02  -9.2 4.14e-01 2.15e-01h  1
 199 -2.4816224e-01 2.31e+01 1.24e+04  -6.0 6.26e+03  -9.6 7.55e-02 1.55e-01h  1
iter    objective    inf_pr   inf_du lg(mu)  ||d||  lg(rg) alpha_du alpha_pr  ls
 200 -2.4813398e-01 1.98e+01 1.06e+04  -6.0 1.63e+03  -9.2 2.62e-01 1.44e-01h  1
 201 -2.4813998e-01 1.97e+01 1.29e+04  -6.0 7.55e+02  -8.8 3.15e-01 3.56e-03h  1
 202 -2.4827149e-01 1.88e+01 2.51e+04  -6.0 1.48e+03  -9.3 1.96e-01 4.80e-02h  1
 203 -2.4849751e-01 1.79e+01 2.34e+04  -6.0 2.92e+03  -9.7 6.06e-02 4.54e-02h  1
 204 -2.4965981e-01 1.56e+01 5.87e+03  -6.0 1.43e+03  -9.3 5.04e-02 3.91e-01h  1
 205 -2.4976454e-01 1.54e+01 5.78e+03  -6.0 1.27e+04  -9.8 2.76e-02 1.58e-02h  1
 206 -2.5001084e-01 1.53e+01 5.73e+03  -6.0 3.09e+04 -10.3 1.98e-03 8.64e-03h  1
 207 -2.5081961e-01 1.20e+01 3.61e+03  -6.0 8.76e+02  -8.9 1.04e-01 3.69e-01h  1
 208 -2.5156817e-01 1.21e+01 3.11e+03  -6.0 2.06e+03  -9.4 1.20e-01 1.40e-01h  1
 209 -2.5477353e-01 2.11e+01 6.91e+01  -6.0 9.83e+02  -9.0 1.14e-01 9.78e-01h  1
iter    objective    inf_pr   inf_du lg(mu)  ||d||  lg(rg) alpha_du alpha_pr  ls
 210 -2.5586747e-01 2.01e+01 6.02e+01  -6.0 2.48e+03  -9.5 2.55e-02 1.38e-01h  1
 211 -2.5589417e-01 1.74e+01 5.39e+01  -6.0 1.24e+03  -9.0 6.46e-02 1.91e-01h  1
 212 -2.5564617e-01 3.59e+00 1.69e+02  -6.0 4.40e+02  -8.6 1.32e-03 8.17e-01h  1
 213 -2.5570263e-01 3.68e+00 2.37e+02  -6.0 1.10e+05  -9.1 1.69e-03 8.35e-04f  1
 214 -2.5665754e-01 1.71e+01 1.30e+05  -6.0 4.49e+02  -8.7 1.43e-03 9.04e-01h  1
 215 -2.5678190e-01 1.79e+01 1.28e+05  -6.0 3.19e+03  -9.1 6.62e-02 1.50e-02h  1
 216 -2.5785244e-01 1.11e+01 7.51e+04  -6.0 8.05e+02  -9.6 2.09e-01 4.12e-01h  1
 217 -2.5832576e-01 1.13e+01 6.43e+04  -6.0 2.33e+03 -10.1 3.66e-01 1.44e-01h  1
 218 -2.5920192e-01 3.75e+00 5.71e+03  -6.0 5.87e+02  -9.7 2.92e-01 9.11e-01h  1
 219 -2.5962066e-01 3.15e+01 6.56e+01  -6.0 1.46e+03 -10.1 5.11e-02 1.00e+00h  1
iter    objective    inf_pr   inf_du lg(mu)  ||d||  lg(rg) alpha_du alpha_pr  ls
 220 -2.5963550e-01 2.58e+01 4.16e+01  -6.0 1.55e+01  -7.9 3.27e-01 1.81e-01h  1
 221 -2.5972963e-01 5.21e+01 4.71e+01  -6.0 9.72e+03    -  1.15e-01 2.01e-01h  1
 222 -2.5968691e-01 4.90e+01 1.16e+02  -6.0 7.26e+01  -7.5 8.85e-02 5.95e-02h  1
 223 -2.5969925e-01 4.42e+01 2.01e+02  -6.0 2.45e+01  -8.0 1.63e-01 9.87e-02h  1
 224 -2.5962476e-01 2.10e-01 2.19e+03  -6.0 1.84e+01  -8.4 4.33e-02 1.00e+00h  1
 225 -2.5963581e-01 6.12e-01 1.52e+02  -6.0 3.56e+01  -8.9 6.61e-01 1.00e+00h  1
 226 -2.5969702e-01 7.08e-01 1.40e+02  -6.0 5.46e+01  -7.6 1.24e-01 1.33e-01h  1
 227 -2.5975015e-01 1.14e+00 2.25e+02  -6.0 1.54e+02  -8.1 1.61e-01 7.00e-02h  2
 228 -2.5984534e-01 1.86e+00 6.63e+02  -6.0 1.97e+02  -8.5 4.35e-01 1.19e-01h  2
 229 -2.6013543e-01 2.21e+00 2.89e+02  -6.0 3.59e+02  -9.0 7.88e-01 1.00e+00h  1
iter    objective    inf_pr   inf_du lg(mu)  ||d||  lg(rg) alpha_du alpha_pr  ls
 230 -2.6047858e-01 1.58e+01 1.22e+03  -6.0 1.48e+03  -9.5 2.57e-01 6.40e-01h  1
 231 -2.6055051e-01 1.33e+01 1.26e+03  -6.0 4.96e+02 -10.0 2.61e-01 1.69e-01h  1
 232 -2.6064491e-01 1.01e+01 6.13e+03  -6.0 1.19e+03 -10.5 4.90e-02 3.00e-01h  1
 233 -2.6070028e-01 8.42e+00 5.19e+03  -6.0 1.29e+03 -10.0 5.40e-01 1.69e-01h  1
 234 -2.6076978e-01 1.42e+00 3.84e+02  -6.0 3.39e+02  -9.6 8.76e-02 1.00e+00h  1
 235 -2.6088393e-01 1.98e+00 5.85e+01  -6.0 1.82e+02  -9.2 8.27e-01 8.54e-01h  1
 236 -2.6085096e-01 2.72e+00 3.98e+01  -6.0 3.91e+02  -9.7 7.13e-01 1.00e+00h  1
 237 -2.6088171e-01 3.06e+00 3.18e+01  -6.0 1.61e+03 -10.1 5.41e-01 2.36e-01h  1
 238 -2.6087643e-01 6.11e+00 2.04e+01  -6.0 2.25e+03    -  3.95e-01 3.56e-01h  1
 239 -2.6085514e-01 5.34e+00 5.14e+01  -6.0 1.41e+03    -  1.00e+00 2.23e-01h  1
iter    objective    inf_pr   inf_du lg(mu)  ||d||  lg(rg) alpha_du alpha_pr  ls
 240 -2.6075957e-01 6.90e+00 6.37e+00  -6.0 1.14e+03    -  5.39e-02 1.00e+00h  1
 241 -2.6073644e-01 1.61e-02 3.46e-03  -6.0 3.70e+01  -8.8 1.00e+00 1.00e+00h  1
 242 -2.6073765e-01 1.53e-02 6.38e-04  -6.0 3.61e+01  -9.3 1.00e+00 1.00e+00h  1
 243 -2.6073847e-01 1.42e-01 6.56e-03  -6.0 1.10e+02  -9.8 1.00e+00 1.00e+00h  1
 244 -2.6073779e-01 9.51e-01 4.58e+01  -6.0 1.89e+04    -  1.55e-01 1.39e-02h  2
 245 -2.6073873e-01 8.63e-01 7.83e+00  -6.0 4.32e+02    -  1.00e+00 3.07e-01h  2
 246 -2.6074347e-01 7.19e-02 1.24e-03  -6.0 7.97e+01    -  1.00e+00 1.00e+00h  1
 247 -2.6074349e-01 5.56e-04 2.68e-05  -6.0 7.01e+00    -  1.00e+00 1.00e+00h  1
 248 -2.6074349e-01 5.90e-09 3.63e-10  -6.0 2.32e-02    -  1.00e+00 1.00e+00h  1
 249 -2.6122817e-01 1.39e+00 8.07e+01  -7.5 2.65e+03    -  5.02e-01 2.19e-01f  1
iter    objective    inf_pr   inf_du lg(mu)  ||d||  lg(rg) alpha_du alpha_pr  ls
 250 -2.6141741e-01 3.76e+00 5.86e+01  -7.5 3.37e+03    -  3.06e-02 1.19e-01h  1
 251 -2.6145302e-01 3.61e+00 8.96e+01  -7.5 3.86e+02  -9.3 2.85e-01 4.17e-02h  1
 252 -2.6189011e-01 1.30e+01 4.94e+01  -7.5 2.55e+03    -  7.53e-04 3.80e-01h  1
 253 -2.6203844e-01 9.36e+00 7.12e+01  -7.5 1.83e+03    -  4.94e-01 2.80e-01h  1
 254 -2.6212813e-01 7.35e+00 9.43e+01  -7.5 1.62e+03    -  6.43e-01 2.18e-01h  1
 255 -2.6226073e-01 3.21e+00 3.85e+01  -7.5 1.94e+02  -9.8 3.76e-01 5.65e-01h  1
 256 -2.6237290e-01 4.27e+00 1.13e+01  -7.5 1.46e+03    -  9.89e-02 6.79e-01h  1
 257 -2.6237587e-01 3.88e+00 1.11e+01  -7.5 2.86e+02 -10.3 9.72e-01 9.19e-02h  1
 258 -2.6240213e-01 1.81e+00 5.02e+00  -7.5 4.20e+02 -10.8 1.00e+00 5.34e-01h  1
 259 -2.6241349e-01 5.97e-01 1.19e+00  -7.5 4.35e+02 -11.2 6.39e-02 7.65e-01h  1
iter    objective    inf_pr   inf_du lg(mu)  ||d||  lg(rg) alpha_du alpha_pr  ls
 260 -2.6241220e-01 3.84e+00 6.08e-01  -7.5 8.45e+02 -11.7 4.40e-02 5.00e-01h  2
 261 -2.6240971e-01 3.04e+00 4.99e-01  -7.5 7.31e+02    -  1.67e-01 1.80e-01h  2
 262 -2.6241558e-01 1.75e+00 2.50e-01  -7.5 2.25e+02    -  5.85e-01 4.97e-01h  1
 263 -2.6240936e-01 9.50e-01 1.27e-01  -7.5 1.57e+02    -  6.13e-01 4.87e-01h  1
 264 -2.6241424e-01 5.34e-01 4.09e-02  -7.5 1.73e+02 -11.3 1.00e+00 9.09e-01h  1
 265 -2.6241413e-01 1.57e+00 3.01e-02  -7.5 3.69e+02 -11.8 2.85e-01 5.00e-01h  2
 266 -2.6241408e-01 9.36e-03 3.38e-02  -7.5 1.11e+01    -  6.04e-01 1.00e+00h  1
 267 -2.6241412e-01 2.16e+00 1.34e-03  -7.5 2.74e+02 -11.3 1.00e+00 1.00e+00h  1
 268 -2.6241416e-01 2.21e+00 3.96e-01  -7.5 3.62e+03    -  2.87e-01 4.94e-02h  5
 269 -2.6241416e-01 2.21e+00 1.06e+00  -7.5 4.50e+04    -  4.10e-02 6.16e-05h 11
iter    objective    inf_pr   inf_du lg(mu)  ||d||  lg(rg) alpha_du alpha_pr  ls
 270 -2.6241418e-01 2.16e+00 1.39e+00  -7.5 2.60e+03    -  1.00e+00 3.12e-02h  6
 271 -2.6241466e-01 1.30e+01 4.61e-02  -7.5 1.21e+03    -  1.00e+00 1.00e+00H  1
 272 -2.6241486e-01 1.89e+00 6.48e-03  -7.5 3.70e+02 -11.8 1.00e+00 1.00e+00h  1
 273 -2.6241536e-01 1.81e+01 3.08e-02  -7.5 1.18e+03 -12.3 1.00e+00 1.00e+00h  1
 274 -2.6241539e-01 1.81e+01 1.21e+00  -7.5 1.49e+04    -  1.37e-01 4.48e-03h  6
 275 -2.6241569e-01 1.96e+01 1.69e+00  -7.5 3.48e+03    -  1.00e+00 1.64e-01h  3
 276 -2.6241639e-01 2.11e+01 3.23e-01  -7.5 1.21e+03    -  6.74e-01 1.00e+00h  1
 277 -2.6241640e-01 3.29e-01 1.01e-03  -7.5 6.39e+01    -  1.00e+00 1.00e+00h  1
 278 -2.6241688e-01 9.36e+00 4.03e-01  -7.5 7.98e+02 -11.9 1.25e-01 1.00e+00h  1
 279 -2.6241755e-01 3.79e+00 4.66e-02  -7.5 9.42e+02 -12.3 9.35e-01 1.00e+00H  1
iter    objective    inf_pr   inf_du lg(mu)  ||d||  lg(rg) alpha_du alpha_pr  ls
 280 -2.6241726e-01 3.29e+00 2.93e-02  -7.5 4.57e+02    -  1.00e+00 1.00e+00h  1
 281 -2.6241727e-01 7.42e-03 1.62e-04  -7.5 1.85e+01    -  1.00e+00 1.00e+00h  1
 282 -2.6241727e-01 8.96e-05 9.81e-07  -7.5 2.40e+00    -  1.00e+00 1.00e+00h  1
 283 -2.6241727e-01 2.85e-10 5.50e-13  -7.5 5.15e-04    -  1.00e+00 1.00e+00h  1
 284 -2.6241977e-01 2.99e+00 2.45e+00  -9.0 1.70e+03    -  5.24e-01 2.58e-01h  1
 285 -2.6242184e-01 6.18e+01 1.29e+00  -9.0 5.71e+03    -  2.68e-01 3.41e-01h  1
 286 -2.6242274e-01 4.38e+01 5.94e-01  -9.0 1.56e+03    -  3.78e-01 4.23e-01h  1
 287 -2.6242315e-01 3.66e+01 3.73e-01  -9.0 1.85e+03    -  2.54e-01 2.81e-01h  1
 288 -2.6242423e-01 1.00e+02 1.39e+01  -9.0 4.56e+03    -  3.28e-02 6.49e-01h  1
 289 -2.6242529e-01 4.83e+01 3.88e+01  -9.0 1.82e+03    -  9.40e-04 1.00e+00h  1
iter    objective    inf_pr   inf_du lg(mu)  ||d||  lg(rg) alpha_du alpha_pr  ls
 290 -2.6242551e-01 9.27e+00 7.58e+00  -9.0 7.77e+02    -  1.15e-01 1.00e+00h  1
 291 -2.6242585e-01 1.79e+01 7.64e-01  -9.0 1.12e+03    -  4.28e-01 1.00e+00h  1
 292 -2.6242597e-01 8.59e+00 1.77e-01  -9.0 6.71e+02    -  7.60e-01 9.19e-01h  1
 293 -2.6242598e-01 8.58e+00 1.83e-01  -9.0 8.06e+03    -  2.03e-01 5.19e-03h  5
 294 -2.6242601e-01 8.55e+00 1.24e-01  -9.0 2.23e+03    -  9.12e-01 7.01e-02h  3
 295 -2.6242610e-01 8.75e+00 4.65e-02  -9.0 1.19e+03    -  9.92e-01 3.57e-01H  1
 296 -2.6242604e-01 1.42e+00 5.26e-02  -9.0 3.11e+02    -  4.77e-01 1.00e+00h  1
 297 -2.6242637e-01 3.59e+01 4.23e-02  -9.0 2.00e+03    -  9.89e-02 7.87e-01h  1
 298 -2.6242632e-01 2.80e+01 3.46e-02  -9.0 1.06e+03    -  1.80e-01 2.50e-01h  3
 299 -2.6242634e-01 2.80e+01 3.29e-02  -9.0 3.27e+04    -  5.03e-02 2.96e-03h  5
iter    objective    inf_pr   inf_du lg(mu)  ||d||  lg(rg) alpha_du alpha_pr  ls
 300 -2.6242638e-01 2.82e+01 4.31e-02  -9.0 1.50e+04    -  1.02e-01 1.29e-02h  4
 301 -2.6242679e-01 9.91e+00 2.53e-02  -9.0 1.93e+03 -12.8 3.11e-01 1.00e+00H  1
 302 -2.6242703e-01 4.96e+01 2.46e-02  -9.0 4.47e+03    -  2.00e-01 3.58e-01h  1
 303 -2.6242703e-01 4.79e+01 7.79e+00  -9.0 1.07e+03    -  1.00e+00 3.47e-02h  1
 304 -2.6242693e-01 2.97e+00 1.58e+02  -9.0 3.65e+02    -  3.63e-02 1.00e+00h  1
 305 -2.6242691e-01 8.63e-02 7.28e-05  -9.0 6.51e+01    -  1.00e+00 1.00e+00h  1
 306 -2.6242705e-01 1.12e+01 8.68e-03  -9.0 7.88e+02 -12.4 4.13e-01 1.00e+00h  1
 307 -2.6242700e-01 2.88e+00 5.14e-03  -9.0 3.60e+02    -  5.48e-01 1.00e+00h  1
 308 -2.6242701e-01 7.13e-01 3.24e-05  -9.0 9.35e+01    -  1.00e+00 1.00e+00h  1
 309 -2.6242705e-01 2.64e+00 5.38e-03  -9.0 3.56e+02    -  3.02e-01 1.00e+00h  1
iter    objective    inf_pr   inf_du lg(mu)  ||d||  lg(rg) alpha_du alpha_pr  ls
 310 -2.6242705e-01 2.62e+00 3.94e-02  -9.0 4.83e+03    -  3.34e-01 5.23e-03h  7
 311 -2.6242706e-01 2.59e+00 5.97e-02  -9.0 3.08e+03    -  1.00e+00 1.64e-02h  6
 312 -2.6242721e-01 1.34e+01 6.21e-03  -9.0 1.12e+03    -  9.30e-01 1.00e+00H  1
 313 -2.6242732e-01 3.04e+00 8.05e-03  -9.0 1.06e+03    -  8.67e-01 1.00e+00H  1
 314 -2.6242729e-01 1.84e-01 5.90e-04  -9.0 9.29e+01    -  1.00e+00 1.00e+00h  1
 315 -2.6242730e-01 3.83e-02 1.05e-05  -9.0 4.12e+01    -  1.00e+00 1.00e+00h  1
 316 -2.6242730e-01 1.45e-05 6.34e-09  -9.0 8.40e-01    -  1.00e+00 1.00e+00h  1
 317 -2.6242730e-01 2.85e-10 1.45e-14  -9.0 3.11e-04    -  1.00e+00 1.00e+00h  1

Number of Iterations....: 317

                                   (scaled)                 (unscaled)
Objective...............:  -2.6242729590328373e-01   -2.6242729590328373e-01
Dual infeasibility......:   1.4490145194834270e-14    1.4490145194834270e-14
Constraint violation....:   2.8514207954435239e-10    2.8514207954435239e-10
Complementarity.........:   9.0909092364410632e-10    9.0909092364410632e-10
Overall NLP error.......:   9.0909092364410632e-10    9.0909092364410632e-10


Number of objective function evaluations             = 739
Number of objective gradient evaluations             = 317
Number of equality constraint evaluations            = 739
Number of inequality constraint evaluations          = 740
Number of equality constraint Jacobian evaluations   = 322
Number of inequality constraint Jacobian evaluations = 322
Number of Lagrangian Hessian evaluations             = 317
Total CPU secs in IPOPT (w/o function evaluations)   =    644.449
Total CPU secs in NLP function evaluations           =     16.206

EXIT: Optimal Solution Found.
